100
128
1
56
22
62
17
48
14
6
44
9
10
31
34
28
10
8
37
24
30
43
15
35
13
22
59
10
39
18
21
14
48
45
19
26
20
64
28
33
30
28
29
52
17
44
27
56
30
15
30
55
16
2
34
30
17
50
29
19
47
38
57
21
27
21
17
59
25
27
11
57
35
47
33
48
36
29
59
40
47
2
48
22
37
49
43
36
49
51
9
21
64
62
46
42
9
60
4
64
9
4